letting n =  10
letting blocks =  [[1, 2], [1, 3], [1, 4], [1, 10], [2, 3], [2, 4], [2, 5], [2, 6], [2, 8], [2, 10], [3, 4], [3, 7], [3, 9], [3, 10], [4, 1], [4, 2], [4, 3], [4, 6], [4, 8], [4, 10], [5, 1], [5, 2], [5, 4], [5, 5], [5, 8], [5, 9], [6, 5], [6, 6], [6, 8], [7, 2], [7, 7], [7, 8], [8, 1], [8, 3], [8, 7], [8, 8], [8, 9], [8, 10], [9, 2], [9, 5], [9, 6], [9, 10], [10, 1], [10, 3], [10, 5], [10, 6], [10, 7], [10, 9]]
